7 21 4
0 1 1.00
0 2 7.00
0 3 1.00
0 4 7.00
0 5 1.00
0 6 7.00
1 2 1.00
1 3 7.00
1 4 7.00
1 5 7.00
1 6 1.00
2 3 1.00
2 4 7.00
2 5 7.00
2 6 7.00
3 4 1.00
3 5 7.00
3 6 7.00
4 5 1.00
4 6 7.00
5 6 1.00
0
2
4
6
